benchmarks_vrp/CMT2/fixed_c_size/CMT2_4.vrp
NAME: CMT2_4
TYPE: CVRP
COMMENT: 835.26 - Cluster Nr.4
DIMENSION: 12
CAPACITY: 140
EDGE_WEIGHT_TYPE: EUC_2D
NODE_COORD_TYPE: TWOD_COORDS
NODE_COORD_SECTION: 
4 65 27
8 55 20
10 40 40
11 66 14
5 62 24
9 64 4
6 50 15
7 50 4
12 66 8
3 54 10
1 60 15
2 59 5
DEPOT_SECTION: 
10
-1
DEMAND_SECTION: 
8 21
9 13
5 8
1 14
12 11
3 12
2 3
10 0
6 19
11 22
4 14
7 8
EOF
