benchmarks_vrp/CMT2/fixed_c_size/CMT2_4.tour
NAME: CMT2_4 solution
TYPE: TOUR
TOUR_SECTION:
10 4 5 -1
10 6 3 7 2 9 12 11 1 8 -1
-1
EOF